Traveling Salesman Problem/TSP_generados/Aleatorio1620392681_16.tsp
NAME: Aleatorio1620392681_16.tsp
COMMENT: Randomly generated scenario
TYPE: TSP
DIMENSION: 16
EDGE_WEIGHT_TYPE: ATT
NODE_COORD_SECTION
1 9.01 12.61
2 28.81 1.94
3 10.02 27.18
4 30.98 3.37
5 14.46 5.63
6 29.92 42.76
7 43.25 17.98
8 4.68 43.57
9 36.16 40.87
10 18.31 3.89
11 17.42 19.36
12 33.14 11.31
13 48.54 22.5
14 23.86 38.53
15 9.78 0.46
16 13.39 4.35
