Traveling Salesman Problem/TSP_generados/Aleatorio1620392681_16.opt.tour
NAME: Aleatorio1620392681_16.opt.tour
COMMENT: Optimal solution for Aleatorio1620392681_16 (158.63326410979184)
TYPE: TOUR
DIMENSION: 16
TOUR_SECTION
1 11 3 8 14 6 9 13 7 12 4 2 10 5 16 15
-1
EOF
